************************************************************************
file with basedata            : md344_.bas
initial value random generator: 1775832261
************************************************************************
projects                      :  1
jobs (incl. supersource/sink ):  22
horizon                       :  160
RESOURCES
  - renewable                 :  2   R
  - nonrenewable              :  2   N
  - doubly constrained        :  0   D
************************************************************************
PROJECT INFORMATION:
pronr.  #jobs rel.date duedate tardcost  MPM-Time
    1     20      0       24       14       24
************************************************************************
PRECEDENCE RELATIONS:
jobnr.    #modes  #successors   successors
   1        1          3           2   3   4
   2        3          3           5   6  19
   3        3          3           7   9  10
   4        3          2           9  11
   5        3          1           9
   6        3          3          10  12  16
   7        3          3           8  13  15
   8        3          3          11  12  14
   9        3          1          14
  10        3          2          17  18
  11        3          1          21
  12        3          2          17  18
  13        3          2          19  20
  14        3          2          17  20
  15        3          3          16  19  21
  16        3          1          18
  17        3          1          21
  18        3          1          20
  19        3          1          22
  20        3          1          22
  21        3          1          22
  22        1          0        
************************************************************************
REQUESTS/DURATIONS:
jobnr. mode duration  R 1  R 2  N 1  N 2
------------------------------------------------------------------------
  1      1     0       0    0    0    0
  2      1     1       2   10    9    0
         2     3       1    7    7    0
         3     8       1    4    0    9
  3      1     3       9    2    7    0
         2     4       9    2    5    0
         3     5       7    2    0    7
  4      1     2      10    6    0    4
         2     5      10    5    0    4
         3    10      10    5    0    1
  5      1     6       6    9    9    0
         2     8       6    8    9    0
         3    10       6    7    9    0
  6      1     2       5    8    4    0
         2     4       4    6    0    8
         3     5       4    4    3    0
  7      1     4       7    9    7    0
         2     5       6    9    0    7
         3     8       6    9    0    3
  8      1     2       6    9    0    7
         2     2       7    7    0    9
         3     7       5    4    0    6
  9      1     5       9    4    0    5
         2     6       4    4    7    0
         3    10       2    3    7    0
 10      1     4      10    8    0    5
         2     7       9    7    0    4
         3     8       9    4    2    0
 11      1     7       8   10    0    9
         2     8       8    9    9    0
         3     9       7    8    0    2
 12      1     3       9    9    0    8
         2     5       8    9    8    0
         3     9       8    6    2    0
 13      1     2       5    6    7    0
         2     4       5    3    6    0
         3     8       3    3    0    5
 14      1     2       5    5    0    4
         2     3       4    5    4    0
         3    10       4    1    4    0
 15      1     4       5   10    0    2
         2     8       4   10    0    1
         3     9       3    9    3    0
 16      1     3       8    7    7    0
         2     4       7    7    0    4
         3     6       7    6    2    0
 17      1     9       6    8    0    7
         2    10       5    7    6    0
         3    10       4    7    0    6
 18      1     2       5    9    8    0
         2     3       5    5    0    5
         3     9       5    5    8    0
 19      1     1       7    9    8    0
         2     5       5    6    0    1
         3    10       4    5    5    0
 20      1     1       6    8    0    8
         2     5       4    7    8    0
         3     7       2    5    0    7
 21      1     1       5    7    4    0
         2     2       4    6    4    0
         3     2       5    5    0    5
 22      1     0       0    0    0    0
************************************************************************
RESOURCEAVAILABILITIES:
  R 1  R 2  N 1  N 2
   41   39   90   86
************************************************************************
MAXIMAL LAGS:
from  to  type  delay
    1   22   ES      0
    1    2   ES      0
    2   22   ES      0
    1    3   ES      0
    3   22   ES      0
    1    4   ES      0
    4   22   ES      0
    1    5   ES      0
    5   22   ES      0
    1    6   ES      0
    6   22   ES      0
    1    7   ES      0
    7   22   ES      0
    1    8   ES      0
    8   22   ES      0
    1    9   ES      0
    9   22   ES      0
    1   10   ES      0
   10   22   ES      0
    1   11   ES      0
   11   22   ES      0
    1   12   ES      0
   12   22   ES      0
    1   13   ES      0
   13   22   ES      0
    1   14   ES      0
   14   22   ES      0
    1   15   ES      0
   15   22   ES      0
    1   16   ES      0
   16   22   ES      0
    1   17   ES      0
   17   22   ES      0
    1   18   ES      0
   18   22   ES      0
    1   19   ES      0
   19   22   ES      0
    1   20   ES      0
   20   22   ES      0
    1   21   ES      0
   21   22   ES      0
    1   22   ES      0
    2    5   SS      7
    2    5   SE      7
    2    5   ES     -9
    2    5   EE     -3
    2    6   SS     11
    2    6   SE    -11
    2    6   ES     11
    2    6   EE     -6
    2   19   SS      4
    2   19   SE      4
    2   19   ES     -3
    2   19   EE     -5
    3    7   SS      0
    3    7   SE      1
    3    7   ES     10
    3    7   EE    -12
    3    9   SS     -3
    3    9   SE     -4
    3    9   ES     -6
    3    9   EE     -8
    3   10   SS     -3
    3   10   SE    -12
    3   10   ES    -12
    3   10   EE      8
    4    9   SS      8
    4    9   SE     12
    4    9   ES      1
    4    9   EE    -10
    4   11   SS     -1
    4   11   SE      2
    4   11   ES     12
    4   11   EE     -8
    5    9   SS      2
    5    9   SE      8
    9    5   SE      0
    5    9   ES      0
    5    9   EE      5
    6   10   SS     -7
    6   10   SE      7
    6   10   ES      2
    6   10   EE     12
    6   12   SS     -2
    6   12   SE     -9
    6   12   ES     -4
    6   12   EE      2
    6   16   SS     -4
    6   16   SE     -6
    6   16   ES     10
    6   16   EE      7
    7    8   SS      2
    7    8   SE     -3
    7    8   ES     -7
    7    8   EE      6
    7   13   SS     -8
    7   13   SE     -2
    7   13   ES    -12
    7   13   EE     -9
    7   15   SS    -11
    7   15   SE     -2
    7   15   ES      5
    7   15   EE      3
    8   11   SS     -1
    8   11   SE     -8
    8   11   ES     -2
    8   11   EE     11
    8   12   SS      0
    8   12   SE      5
    8   12   ES    -12
    8   12   EE      8
    8   14   SS      1
    8   14   SE      8
    8   14   ES     -2
    8   14   EE      0
    9   14   SS     -7
    9   14   SE     -2
    9   14   ES      7
    9   14   EE     12
   10   17   SS    -11
   10   17   SE      8
   10   17   ES     -3
   10   17   EE     -2
   10   18   SS      6
   10   18   SE     12
   10   18   ES      6
   10   18   EE    -11
   11   21   SS      4
   11   21   SE    -11
   11   21   ES     11
   11   21   EE     10
   12   17   SS     10
   12   17   SE     -8
   12   17   ES      3
   12   17   EE    -10
   12   18   SS    -10
   12   18   SE     -8
   12   18   ES     -8
   12   18   EE     -9
   13   19   SS      4
   13   19   SE     -7
   13   19   ES     10
   13   19   EE     -5
   13   20   SS    -10
   13   20   SE     12
   13   20   ES     -1
   13   20   EE     -1
   14   17   SS     -2
   14   17   SE    -10
   14   17   ES      1
   14   17   EE     -2
   14   20   SS     12
   14   20   SE    -10
   14   20   ES      3
   14   20   EE      0
   15   16   SS      5
   15   16   SE    -11
   15   16   ES      4
   15   16   EE      1
   15   19   SS      8
   15   19   SE      0
   15   19   ES     10
   15   19   EE     -8
   15   21   SS      5
   15   21   SE    -10
   15   21   ES     -6
   15   21   EE      2
   16   18   SS     -7
   16   18   SE     -9
   16   18   ES     12
   16   18   EE     -4
   17   21   SS     -5
   17   21   SE     -5
   17   21   ES    -11
   17   21   EE      8
   18   20   SS      9
   18   20   SE      5
   18   20   ES    -12
   18   20   EE    -11
************************************************************************
